objective value:                                    0
lambda[1,17]*                                       4 	(obj:0)
lambda[0,26]*                                       1 	(obj:0)
lambda[1,18]*                                       4 	(obj:0)
lambda[0,27]*                                       5 	(obj:0)
lambda[0,28]*                                       4 	(obj:0)
lambda[1,20]*                                       2 	(obj:0)
